NAME: cum150.tsp
TYPE: TSP
COMMENT: User-generated TSP file
DIMENSION: 750
EDGE_WEIGHT_TYPE: EUC_2D
NODE_COORD_SECTION
1 358.0 399.0
2 676.0 605.0
3 338.0 376.0
4 702.0 614.0
5 629.0 701.0
6 323.0 427.0
7 280.0 347.0
8 206.0 288.0
9 435.0 245.0
10 651.0 167.0
11 749.0 543.0
12 643.0 496.0
13 142.0 387.0
14 604.0 568.0
15 446.0 536.0
16 489.0 101.0
17 259.0 302.0
18 16.0 183.0
19 208.0 23.0
20 633.0 541.0
21 263.0 2.0
22 396.0 71.0
23 64.0 228.0
24 682.0 437.0
25 157.0 30.0
26 559.0 506.0
27 448.0 56.0
28 406.0 111.0
29 201.0 537.0
30 368.0 171.0
31 335.0 333.0
32 557.0 78.0
33 120.0 316.0
34 36.0 443.0
35 661.0 517.0
36 413.0 434.0
37 522.0 21.0
38 256.0 333.0
39 450.0 389.0
40 673.0 139.0
41 168.0 2.0
42 434.0 700.0
43 12.0 471.0
44 337.0 420.0
45 122.0 57.0
46 651.0 57.0
47 703.0 566.0
48 192.0 499.0
49 61.0 191.0
50 70.0 672.0
51 321.0 498.0
52 486.0 618.0
53 184.0 661.0
54 328.0 129.0
55 237.0 606.0
56 344.0 291.0
57 433.0 565.0
58 518.0 712.0
59 102.0 735.0
60 508.0 386.0
61 370.0 611.0
62 104.0 703.0
63 571.0 308.0
64 661.0 521.0
65 604.0 126.0
66 333.0 633.0
67 630.0 630.0
68 291.0 9.0
69 580.0 750.0
70 327.0 552.0
71 356.0 601.0
72 235.0 432.0
73 614.0 558.0
74 536.0 649.0
75 21.0 725.0
76 110.0 720.0
77 472.0 480.0
78 509.0 233.0
79 72.0 335.0
80 388.0 24.0
81 192.0 347.0
82 355.0 90.0
83 171.0 614.0
84 51.0 585.0
85 44.0 2.0
86 589.0 279.0
87 520.0 589.0
88 472.0 457.0
89 199.0 323.0
90 610.0 370.0
91 193.0 463.0
92 202.0 80.0
93 22.0 398.0
94 717.0 15.0
95 25.0 515.0
96 697.0 87.0
97 244.0 323.0
98 180.0 661.0
99 154.0 642.0
100 373.0 174.0
101 139.0 313.0
102 40.0 424.0
103 693.0 227.0
104 636.0 48.0
105 653.0 42.0
106 37.0 664.0
107 628.0 376.0
108 693.0 392.0
109 306.0 428.0
110 44.0 241.0
111 422.0 128.0
112 520.0 732.0
113 434.0 672.0
114 368.0 273.0
115 377.0 690.0
116 475.0 66.0
117 636.0 48.0
118 423.0 474.0
119 566.0 264.0
120 358.0 697.0
121 250.0 531.0
122 696.0 322.0
123 206.0 141.0
124 355.0 17.0
125 475.0 748.0
126 142.0 506.0
127 442.0 244.0
128 379.0 746.0
129 501.0 155.0
130 312.0 75.0
131 90.0 666.0
132 128.0 744.0
133 73.0 503.0
134 33.0 685.0
135 251.0 472.0
136 228.0 750.0
137 691.0 344.0
138 197.0 21.0
139 558.0 272.0
140 7.0 302.0
141 552.0 143.0
142 140.0 146.0
143 241.0 600.0
144 5.0 223.0
145 41.0 356.0
146 228.0 529.0
147 555.0 45.0
148 726.0 277.0
149 158.0 345.0
150 559.0 609.0
151 480.0 587.0
152 61.0 53.0
153 45.0 250.0
154 66.0 54.0
155 116.0 76.0
156 687.0 585.0
157 138.0 484.0
158 629.0 264.0
159 688.0 100.0
160 549.0 60.0
161 589.0 497.0
162 181.0 7.0
163 395.0 420.0
164 470.0 525.0
165 6.0 540.0
166 302.0 179.0
167 215.0 211.0
168 682.0 386.0
169 566.0 328.0
170 261.0 476.0
171 616.0 36.0
172 130.0 412.0
173 97.0 356.0
174 12.0 499.0
175 656.0 724.0
176 518.0 569.0
177 172.0 223.0
178 648.0 609.0
179 705.0 602.0
180 450.0 96.0
181 533.0 176.0
182 282.0 206.0
183 739.0 11.0
184 346.0 379.0
185 524.0 726.0
186 735.0 75.0
187 274.0 716.0
188 659.0 219.0
189 100.0 608.0
190 396.0 455.0
191 158.0 371.0
192 6.0 499.0
193 8.0 577.0
194 484.0 252.0
195 640.0 348.0
196 600.0 92.0
197 697.0 675.0
198 741.0 6.0
199 71.0 190.0
200 658.0 235.0
201 686.0 234.0
202 278.0 159.0
203 466.0 76.0
204 79.0 414.0
205 632.0 684.0
206 354.0 28.0
207 705.0 57.0
208 634.0 206.0
209 553.0 454.0
210 174.0 585.0
211 629.0 6.0
212 26.0 487.0
213 482.0 609.0
214 584.0 625.0
215 456.0 683.0
216 331.0 717.0
217 83.0 696.0
218 391.0 102.0
219 118.0 593.0
220 589.0 128.0
221 456.0 254.0
222 630.0 346.0
223 225.0 9.0
224 95.0 133.0
225 635.0 655.0
226 241.0 379.0
227 152.0 497.0
228 477.0 387.0
229 382.0 287.0
230 355.0 204.0
231 24.0 271.0
232 231.0 720.0
233 191.0 27.0
234 329.0 283.0
235 25.0 140.0
236 164.0 126.0
237 661.0 51.0
238 465.0 706.0
239 593.0 330.0
240 111.0 256.0
241 575.0 198.0
242 364.0 385.0
243 86.0 702.0
244 583.0 179.0
245 731.0 8.0
246 662.0 636.0
247 568.0 320.0
248 135.0 258.0
249 223.0 558.0
250 265.0 107.0
251 559.0 175.0
252 509.0 57.0
253 603.0 3.0
254 53.0 533.0
255 619.0 461.0
256 721.0 506.0
257 92.0 14.0
258 58.0 530.0
259 166.0 576.0
260 536.0 578.0
261 579.0 602.0
262 540.0 53.0
263 590.0 737.0
264 69.0 136.0
265 648.0 586.0
266 498.0 520.0
267 137.0 574.0
268 384.0 320.0
269 262.0 226.0
270 32.0 651.0
271 322.0 31.0
272 193.0 440.0
273 53.0 302.0
274 314.0 150.0
275 34.0 640.0
276 485.0 38.0
277 456.0 87.0
278 471.0 746.0
279 420.0 109.0
280 380.0 43.0
281 198.0 598.0
282 45.0 187.0
283 97.0 76.0
284 744.0 32.0
285 533.0 189.0
286 228.0 532.0
287 71.0 354.0
288 644.0 54.0
289 351.0 740.0
290 349.0 268.0
291 103.0 295.0
292 148.0 454.0
293 67.0 326.0
294 115.0 576.0
295 710.0 102.0
296 510.0 560.0
297 603.0 570.0
298 235.0 258.0
299 658.0 355.0
300 687.0 241.0
301 732.0 130.0
302 303.0 253.0
303 318.0 500.0
304 321.0 607.0
305 419.0 254.0
306 250.0 747.0
307 268.0 102.0
308 204.0 498.0
309 58.0 320.0
310 348.0 519.0
311 55.0 183.0
312 452.0 28.0
313 678.0 233.0
314 141.0 135.0
315 620.0 648.0
316 278.0 221.0
317 523.0 70.0
318 488.0 67.0
319 120.0 342.0
320 170.0 633.0
321 57.0 362.0
322 219.0 582.0
323 626.0 271.0
324 249.0 339.0
325 134.0 98.0
326 113.0 495.0
327 184.0 358.0
328 51.0 745.0
329 18.0 523.0
330 599.0 50.0
331 734.0 641.0
332 262.0 508.0
333 394.0 384.0
334 561.0 344.0
335 121.0 365.0
336 60.0 416.0
337 167.0 593.0
338 276.0 579.0
339 233.0 245.0
340 467.0 552.0
341 378.0 584.0
342 379.0 275.0
343 551.0 236.0
344 361.0 634.0
345 239.0 642.0
346 311.0 283.0
347 347.0 702.0
348 630.0 27.0
349 414.0 349.0
350 13.0 176.0
351 352.0 252.0
352 429.0 606.0
353 453.0 273.0
354 667.0 51.0
355 499.0 441.0
356 434.0 647.0
357 745.0 412.0
358 174.0 16.0
359 565.0 745.0
360 439.0 443.0
361 344.0 346.0
362 498.0 616.0
363 428.0 152.0
364 730.0 675.0
365 337.0 265.0
366 350.0 2.0
367 38.0 131.0
368 130.0 681.0
369 165.0 193.0
370 545.0 124.0
371 173.0 131.0
372 13.0 234.0
373 291.0 373.0
374 480.0 620.0
375 288.0 53.0
376 662.0 636.0
377 166.0 55.0
378 142.0 526.0
379 565.0 53.0
380 327.0 400.0
381 541.0 287.0
382 185.0 318.0
383 73.0 463.0
384 546.0 36.0
385 452.0 285.0
386 490.0 64.0
387 556.0 236.0
388 222.0 235.0
389 225.0 260.0
390 130.0 582.0
391 611.0 305.0
392 481.0 488.0
393 88.0 357.0
394 75.0 470.0
395 98.0 336.0
396 230.0 19.0
397 362.0 189.0
398 176.0 646.0
399 302.0 151.0
400 160.0 461.0
401 527.0 257.0
402 74.0 441.0
403 401.0 537.0
404 136.0 426.0
405 77.0 571.0
406 234.0 445.0
407 476.0 18.0
408 708.0 629.0
409 526.0 558.0
410 435.0 180.0
411 255.0 611.0
412 507.0 691.0
413 702.0 238.0
414 251.0 457.0
415 363.0 722.0
416 189.0 526.0
417 651.0 55.0
418 158.0 385.0
419 299.0 432.0
420 727.0 483.0
421 602.0 533.0
422 464.0 115.0
423 198.0 16.0
424 602.0 164.0
425 258.0 447.0
426 694.0 715.0
427 217.0 126.0
428 327.0 21.0
429 105.0 121.0
430 194.0 227.0
431 137.0 130.0
432 545.0 750.0
433 256.0 111.0
434 416.0 549.0
435 238.0 114.0
436 537.0 568.0
437 163.0 24.0
438 395.0 199.0
439 143.0 198.0
440 36.0 2.0
441 12.0 188.0
442 474.0 718.0
443 742.0 164.0
444 424.0 38.0
445 122.0 654.0
446 573.0 219.0
447 330.0 616.0
448 275.0 655.0
449 43.0 174.0
450 299.0 114.0
451 231.0 647.0
452 327.0 462.0
453 135.0 593.0
454 353.0 325.0
455 680.0 173.0
456 464.0 392.0
457 564.0 150.0
458 483.0 649.0
459 490.0 471.0
460 706.0 208.0
461 261.0 749.0
462 124.0 75.0
463 247.0 28.0
464 702.0 594.0
465 386.0 704.0
466 238.0 672.0
467 174.0 736.0
468 746.0 225.0
469 696.0 550.0
470 384.0 586.0
471 737.0 647.0
472 179.0 300.0
473 109.0 106.0
474 149.0 522.0
475 68.0 66.0
476 78.0 426.0
477 337.0 537.0
478 111.0 529.0
479 34.0 628.0
480 440.0 41.0
481 75.0 373.0
482 12.0 575.0
483 654.0 465.0
484 448.0 172.0
485 564.0 607.0
486 87.0 18.0
487 244.0 146.0
488 396.0 611.0
489 533.0 434.0
490 454.0 564.0
491 706.0 106.0
492 164.0 253.0
493 131.0 119.0
494 76.0 550.0
495 94.0 652.0
496 647.0 621.0
497 476.0 207.0
498 56.0 391.0
499 691.0 231.0
500 619.0 248.0
501 399.0 509.0
502 73.0 452.0
503 490.0 614.0
504 180.0 293.0
505 720.0 258.0
506 340.0 46.0
507 622.0 185.0
508 422.0 485.0
509 263.0 526.0
510 315.0 39.0
511 482.0 431.0
512 275.0 132.0
513 273.0 48.0
514 402.0 529.0
515 492.0 73.0
516 101.0 472.0
517 288.0 297.0
518 92.0 734.0
519 269.0 95.0
520 352.0 343.0
521 47.0 525.0
522 388.0 159.0
523 139.0 260.0
524 60.0 627.0
525 285.0 283.0
526 273.0 390.0
527 403.0 423.0
528 556.0 243.0
529 238.0 383.0
530 105.0 384.0
531 503.0 424.0
532 577.0 613.0
533 593.0 541.0
534 85.0 95.0
535 127.0 398.0
536 602.0 3.0
537 587.0 278.0
538 222.0 352.0
539 648.0 734.0
540 327.0 534.0
541 685.0 397.0
542 269.0 443.0
543 715.0 16.0
544 614.0 504.0
545 621.0 693.0
546 92.0 676.0
547 305.0 459.0
548 235.0 61.0
549 91.0 377.0
550 166.0 313.0
551 426.0 740.0
552 518.0 32.0
553 723.0 637.0
554 403.0 600.0
555 8.0 53.0
556 80.0 164.0
557 303.0 217.0
558 99.0 386.0
559 542.0 673.0
560 236.0 233.0
561 585.0 722.0
562 388.0 619.0
563 209.0 668.0
564 606.0 664.0
565 154.0 480.0
566 605.0 331.0
567 282.0 70.0
568 427.0 222.0
569 466.0 99.0
570 495.0 426.0
571 419.0 153.0
572 44.0 496.0
573 434.0 599.0
574 629.0 195.0
575 742.0 685.0
576 52.0 613.0
577 388.0 48.0
578 78.0 622.0
579 149.0 190.0
580 87.0 19.0
581 193.0 221.0
582 358.0 620.0
583 213.0 669.0
584 493.0 723.0
585 122.0 475.0
586 440.0 152.0
587 379.0 334.0
588 357.0 428.0
589 333.0 21.0
590 579.0 2.0
591 675.0 591.0
592 202.0 706.0
593 462.0 177.0
594 530.0 163.0
595 54.0 197.0
596 443.0 387.0
597 704.0 370.0
598 658.0 140.0
599 460.0 744.0
600 120.0 64.0
601 472.0 635.0
602 716.0 659.0
603 665.0 698.0
604 316.0 540.0
605 707.0 108.0
606 606.0 472.0
607 420.0 422.0
608 76.0 134.0
609 598.0 291.0
610 738.0 544.0
611 669.0 440.0
612 606.0 118.0
613 599.0 316.0
614 472.0 142.0
615 527.0 399.0
616 204.0 557.0
617 693.0 638.0
618 695.0 83.0
619 522.0 118.0
620 216.0 296.0
621 678.0 590.0
622 667.0 530.0
623 406.0 688.0
624 175.0 361.0
625 704.0 262.0
626 1.0 542.0
627 134.0 360.0
628 30.0 11.0
629 301.0 179.0
630 279.0 163.0
631 374.0 581.0
632 679.0 662.0
633 730.0 624.0
634 517.0 400.0
635 469.0 109.0
636 657.0 340.0
637 513.0 312.0
638 157.0 545.0
639 308.0 20.0
640 4.0 359.0
641 8.0 420.0
642 328.0 487.0
643 405.0 534.0
644 522.0 498.0
645 15.0 128.0
646 111.0 680.0
647 466.0 668.0
648 264.0 414.0
649 708.0 277.0
650 638.0 750.0
651 735.0 155.0
652 726.0 203.0
653 273.0 640.0
654 245.0 266.0
655 7.0 173.0
656 487.0 477.0
657 481.0 608.0
658 665.0 343.0
659 551.0 594.0
660 656.0 137.0
661 507.0 426.0
662 536.0 480.0
663 579.0 432.0
664 584.0 158.0
665 742.0 30.0
666 168.0 84.0
667 654.0 203.0
668 198.0 229.0
669 323.0 108.0
670 306.0 231.0
671 241.0 73.0
672 177.0 669.0
673 488.0 603.0
674 395.0 413.0
675 572.0 457.0
676 607.0 198.0
677 216.0 647.0
678 70.0 112.0
679 247.0 447.0
680 596.0 343.0
681 245.0 574.0
682 413.0 29.0
683 713.0 746.0
684 194.0 273.0
685 4.0 264.0
686 674.0 305.0
687 675.0 206.0
688 675.0 345.0
689 393.0 329.0
690 410.0 79.0
691 158.0 463.0
692 515.0 282.0
693 227.0 684.0
694 620.0 178.0
695 195.0 553.0
696 205.0 487.0
697 165.0 132.0
698 623.0 12.0
699 9.0 298.0
700 486.0 622.0
701 238.0 365.0
702 501.0 434.0
703 356.0 29.0
704 94.0 129.0
705 647.0 197.0
706 601.0 595.0
707 408.0 242.0
708 398.0 414.0
709 196.0 525.0
710 494.0 34.0
711 428.0 298.0
712 338.0 432.0
713 260.0 236.0
714 482.0 276.0
715 319.0 628.0
716 443.0 562.0
717 206.0 86.0
718 507.0 193.0
719 49.0 509.0
720 676.0 340.0
721 588.0 350.0
722 74.0 13.0
723 551.0 469.0
724 608.0 678.0
725 234.0 401.0
726 379.0 62.0
727 153.0 380.0
728 621.0 129.0
729 461.0 437.0
730 235.0 696.0
731 575.0 389.0
732 38.0 405.0
733 322.0 281.0
734 737.0 187.0
735 441.0 749.0
736 118.0 737.0
737 343.0 543.0
738 280.0 627.0
739 525.0 36.0
740 501.0 570.0
741 290.0 745.0
742 733.0 272.0
743 32.0 137.0
744 490.0 401.0
745 553.0 127.0
746 671.0 582.0
747 106.0 213.0
748 347.0 263.0
749 224.0 466.0
750 213.0 467.0
EOF

